<?xml version = "1.0" standalone="yes"?>
<!-- This file has been generated by DOcplex version 2.23.222  -->
<CPLEXSolution version="1.0">
 <header
   problemName="CVRP"
   objectiveValue="16174.1"
  />
 <variables>
  <variable name="x_0_1" index="0" value="1.00000"/>
  <variable name="x_0_2" index="1" value="1.00000"/>
  <variable name="x_0_4" index="3" value="1.00000"/>
  <variable name="x_0_5" index="4" value="1.00000"/>
  <variable name="x_0_7" index="6" value="1.00000"/>
  <variable name="x_0_8" index="7" value="1.00000"/>
  <variable name="x_0_10" index="9" value="1.00000"/>
  <variable name="x_0_14" index="13" value="1.00000"/>
  <variable name="x_0_23" index="22" value="1.00000"/>
  <variable name="x_0_26" index="25" value="1.00000"/>
  <variable name="x_0_27" index="26" value="1.00000"/>
  <variable name="x_0_28" index="27" value="1.00000"/>
  <variable name="x_0_29" index="28" value="1.00000"/>
  <variable name="x_0_30" index="29" value="1.00000"/>
  <variable name="x_1_3" index="32" value="1.00000"/>
  <variable name="x_2_0" index="60" value="1.00000"/>
  <variable name="x_3_0" index="90" value="1.00000"/>
  <variable name="x_4_6" index="125" value="1.00000"/>
  <variable name="x_5_22" index="171" value="1.00000"/>
  <variable name="x_6_9" index="188" value="1.00000"/>
  <variable name="x_7_11" index="220" value="1.00000"/>
  <variable name="x_8_25" index="264" value="1.00000"/>
  <variable name="x_9_15" index="284" value="1.00000"/>
  <variable name="x_10_0" index="300" value="1.00000"/>
  <variable name="x_11_20" index="349" value="1.00000"/>
  <variable name="x_12_0" index="360" value="1.00000"/>
  <variable name="x_13_16" index="405" value="1.00000"/>
  <variable name="x_14_21" index="440" value="1.00000"/>
  <variable name="x_15_0" index="450" value="1.00000"/>
  <variable name="x_16_0" index="480" value="1.00000"/>
  <variable name="x_17_0" index="510" value="1.00000"/>
  <variable name="x_18_17" index="557" value="1.00000"/>
  <variable name="x_19_0" index="570" value="1.00000"/>
  <variable name="x_20_0" index="600" value="1.00000"/>
  <variable name="x_21_0" index="630" value="1.00000"/>
  <variable name="x_22_19" index="679" value="1.00000"/>
  <variable name="x_23_0" index="690" value="1.00000"/>
  <variable name="x_24_0" index="720" value="1.00000"/>
  <variable name="x_25_0" index="750" value="1.00000"/>
  <variable name="x_26_24" index="804" value="1.00000"/>
  <variable name="x_27_13" index="823" value="1.00000"/>
  <variable name="x_28_18" index="858" value="1.00000"/>
  <variable name="x_29_12" index="882" value="1.00000"/>
  <variable name="x_30_0" index="900" value="1.00000"/>
  <variable name="u_1" index="930" value="3.00000"/>
  <variable name="u_2" index="931" value="20.00000"/>
  <variable name="u_3" index="932" value="22.00000"/>
  <variable name="u_4" index="933" value="1.00000"/>
  <variable name="u_5" index="934" value="17.00000"/>
  <variable name="u_6" index="935" value="10.00000"/>
  <variable name="u_7" index="936" value="10.00000"/>
  <variable name="u_8" index="937" value="11.00000"/>
  <variable name="u_9" index="938" value="19.00000"/>
  <variable name="u_10" index="939" value="24.00000"/>
  <variable name="u_11" index="940" value="18.00000"/>
  <variable name="u_12" index="941" value="24.00000"/>
  <variable name="u_13" index="942" value="22.00000"/>
  <variable name="u_14" index="943" value="11.00000"/>
  <variable name="u_15" index="944" value="24.00000"/>
  <variable name="u_16" index="945" value="23.00000"/>
  <variable name="u_17" index="946" value="24.00000"/>
  <variable name="u_18" index="947" value="15.00000"/>
  <variable name="u_19" index="948" value="23.00000"/>
  <variable name="u_20" index="949" value="24.00000"/>
  <variable name="u_21" index="950" value="21.00000"/>
  <variable name="u_22" index="951" value="21.00000"/>
  <variable name="u_23" index="952" value="15.00000"/>
  <variable name="u_24" index="953" value="24.00000"/>
  <variable name="u_25" index="954" value="24.00000"/>
  <variable name="u_26" index="955" value="20.00000"/>
  <variable name="u_27" index="956" value="1.00000"/>
  <variable name="u_28" index="957" value="9.00000"/>
  <variable name="u_29" index="958" value="20.00000"/>
  <variable name="u_30" index="959" value="19.00000"/>
 </variables>
</CPLEXSolution>
